182397
30,23,12,17,0,9,63,28,72,36,64,52,49,3,62,38,51,40,77,68,24,56,11,33,48,2,46,59,78,5,14,54,42,80,55,6,16,73,18,75,35,66,61,13,69,45,44,25,4,20,57,15,10,71,50,19,76,8,65,70,79,53,31,74,37,32,39,26,34,7,60,41,22,1,29,82,27,81,43,21,58,67,47
